c "678843.clq"
p edge 100 1344
e 1 17
e 1 18
e 1 20
e 1 21
e 1 22
e 1 23
e 1 24
e 1 27
e 1 29
e 1 32
e 1 38
e 1 44
e 1 45
e 1 48
e 1 51
e 1 52
e 1 53
e 1 55
e 1 61
e 1 62
e 1 64
e 1 75
e 1 77
e 1 78
e 1 82
e 1 84
e 1 86
e 1 88
e 1 89
e 1 90
e 1 92
e 1 96
e 1 99
e 2 17
e 2 18
e 2 19
e 2 22
e 2 23
e 2 24
e 2 27
e 2 29
e 2 31
e 2 32
e 2 34
e 2 42
e 2 43
e 2 44
e 2 50
e 2 53
e 2 56
e 2 57
e 2 58
e 2 61
e 2 67
e 2 75
e 2 76
e 2 95
e 3 17
e 3 18
e 3 19
e 3 20
e 3 22
e 3 23
e 3 24
e 3 25
e 3 28
e 3 30
e 3 32
e 3 39
e 3 44
e 3 46
e 3 51
e 3 57
e 3 63
e 3 73
e 3 82
e 3 92
e 3 98
e 4 17
e 4 18
e 4 21
e 4 25
e 4 26
e 4 31
e 4 32
e 4 33
e 4 34
e 4 35
e 4 40
e 4 42
e 4 45
e 4 57
e 4 62
e 4 64
e 4 79
e 4 80
e 4 84
e 4 92
e 5 17
e 5 18
e 5 19
e 5 20
e 5 21
e 5 22
e 5 23
e 5 25
e 5 26
e 5 27
e 5 34
e 5 43
e 5 47
e 5 52
e 5 53
e 5 57
e 5 63
e 5 64
e 5 65
e 5 66
e 5 68
e 5 70
e 5 75
e 5 76
e 5 77
e 5 85
e 5 92
e 5 93
e 5 99
e 6 17
e 6 18
e 6 19
e 6 20
e 6 21
e 6 22
e 6 24
e 6 29
e 6 31
e 6 34
e 6 37
e 6 38
e 6 41
e 6 42
e 6 52
e 6 58
e 6 66
e 6 71
e 6 73
e 6 81
e 6 88
e 6 90
e 6 96
e 6 98
e 7 17
e 7 18
e 7 19
e 7 20
e 7 22
e 7 26
e 7 36
e 7 41
e 7 43
e 7 45
e 7 50
e 7 51
e 7 100
e 8 17
e 8 18
e 8 19
e 8 21
e 8 22
e 8 24
e 8 25
e 8 26
e 8 28
e 8 32
e 8 33
e 8 34
e 8 35
e 8 38
e 8 39
e 8 41
e 8 54
e 8 55
e 8 56
e 8 57
e 8 58
e 8 60
e 8 67
e 8 68
e 8 69
e 8 70
e 8 72
e 8 74
e 8 77
e 8 78
e 8 89
e 8 97
e 8 99
e 9 17
e 9 18
e 9 19
e 9 20
e 9 21
e 9 25
e 9 30
e 9 31
e 9 36
e 9 37
e 9 38
e 9 39
e 9 41
e 9 45
e 9 47
e 9 48
e 9 52
e 9 56
e 9 85
e 9 86
e 9 92
e 9 93
e 9 95
e 10 17
e 10 18
e 10 19
e 10 20
e 10 21
e 10 24
e 10 25
e 10 27
e 10 29
e 10 34
e 10 38
e 10 51
e 10 56
e 10 58
e 10 60
e 10 67
e 10 73
e 10 78
e 10 94
e 11 17
e 11 18
e 11 19
e 11 20
e 11 21
e 11 22
e 11 23
e 11 24
e 11 25
e 11 26
e 11 27
e 11 30
e 11 32
e 11 34
e 11 35
e 11 37
e 11 46
e 11 48
e 11 51
e 11 70
e 11 72
e 11 87
e 12 17
e 12 18
e 12 19
e 12 20
e 12 22
e 12 23
e 12 24
e 12 26
e 12 28
e 12 29
e 12 30
e 12 33
e 12 34
e 12 35
e 12 37
e 12 46
e 12 49
e 12 52
e 12 53
e 12 57
e 12 58
e 12 62
e 12 80
e 12 82
e 12 84
e 12 94
e 12 97
e 13 17
e 13 18
e 13 19
e 13 20
e 13 21
e 13 23
e 13 26
e 13 27
e 13 28
e 13 29
e 13 30
e 13 32
e 13 49
e 13 51
e 13 54
e 13 71
e 14 17
e 14 18
e 14 19
e 14 20
e 14 21
e 14 22
e 14 23
e 14 28
e 14 29
e 14 35
e 14 37
e 14 41
e 14 47
e 14 50
e 14 51
e 14 56
e 14 66
e 14 67
e 14 83
e 14 85
e 14 89
e 14 91
e 15 17
e 15 18
e 15 19
e 15 20
e 15 21
e 15 23
e 15 24
e 15 25
e 15 27
e 15 28
e 15 30
e 15 31
e 15 33
e 15 36
e 15 37
e 15 45
e 15 47
e 15 48
e 15 49
e 15 50
e 15 51
e 15 52
e 15 58
e 15 59
e 15 64
e 15 65
e 15 66
e 15 70
e 15 76
e 15 82
e 15 87
e 15 93
e 15 97
e 15 98
e 16 17
e 16 19
e 16 20
e 16 21
e 16 22
e 16 23
e 16 26
e 16 33
e 16 36
e 16 41
e 16 46
e 16 48
e 16 49
e 16 58
e 16 63
e 16 80
e 16 85
e 16 92
e 16 97
e 17 18
e 17 19
e 17 20
e 17 21
e 17 22
e 17 23
e 17 24
e 17 25
e 17 26
e 17 27
e 17 28
e 17 29
e 17 30
e 17 31
e 17 33
e 17 34
e 17 35
e 17 36
e 17 37
e 17 38
e 17 39
e 17 40
e 17 41
e 17 42
e 17 43
e 17 44
e 17 46
e 17 47
e 17 49
e 17 50
e 17 55
e 17 62
e 17 64
e 17 68
e 17 69
e 17 72
e 17 73
e 17 74
e 17 82
e 17 83
e 17 84
e 17 87
e 17 90
e 17 94
e 17 95
e 17 96
e 18 19
e 18 20
e 18 21
e 18 22
e 18 23
e 18 24
e 18 25
e 18 26
e 18 28
e 18 30
e 18 31
e 18 32
e 18 34
e 18 35
e 18 36
e 18 37
e 18 38
e 18 39
e 18 40
e 18 43
e 18 44
e 18 45
e 18 46
e 18 48
e 18 52
e 18 53
e 18 54
e 18 55
e 18 56
e 18 59
e 18 60
e 18 62
e 18 63
e 18 64
e 18 65
e 18 66
e 18 69
e 18 70
e 18 74
e 18 78
e 18 79
e 18 82
e 18 86
e 18 87
e 18 89
e 18 93
e 18 97
e 18 99
e 19 20
e 19 21
e 19 22
e 19 23
e 19 24
e 19 25
e 19 26
e 19 27
e 19 28
e 19 29
e 19 31
e 19 33
e 19 34
e 19 36
e 19 38
e 19 41
e 19 44
e 19 45
e 19 46
e 19 47
e 19 48
e 19 50
e 19 51
e 19 53
e 19 55
e 19 57
e 19 59
e 19 60
e 19 61
e 19 62
e 19 64
e 19 66
e 19 68
e 19 72
e 19 73
e 19 75
e 19 78
e 19 84
e 19 85
e 19 86
e 19 87
e 19 88
e 19 91
e 19 92
e 19 96
e 19 97
e 19 98
e 20 21
e 20 22
e 20 23
e 20 24
e 20 25
e 20 26
e 20 27
e 20 28
e 20 29
e 20 30
e 20 31
e 20 32
e 20 33
e 20 37
e 20 39
e 20 40
e 20 42
e 20 44
e 20 47
e 20 50
e 20 51
e 20 52
e 20 54
e 20 58
e 20 59
e 20 64
e 20 65
e 20 66
e 20 69
e 20 71
e 20 82
e 20 84
e 20 85
e 20 87
e 21 22
e 21 23
e 21 24
e 21 25
e 21 26
e 21 27
e 21 28
e 21 29
e 21 30
e 21 31
e 21 32
e 21 33
e 21 35
e 21 36
e 21 37
e 21 39
e 21 40
e 21 41
e 21 42
e 21 43
e 21 48
e 21 49
e 21 50
e 21 53
e 21 55
e 21 57
e 21 60
e 21 61
e 21 69
e 21 78
e 21 79
e 21 88
e 22 23
e 22 24
e 22 25
e 22 26
e 22 27
e 22 28
e 22 30
e 22 31
e 22 33
e 22 34
e 22 36
e 22 37
e 22 39
e 22 41
e 22 43
e 22 45
e 22 46
e 22 47
e 22 48
e 22 49
e 22 53
e 22 54
e 22 55
e 22 68
e 22 71
e 22 74
e 22 78
e 22 81
e 22 82
e 22 84
e 22 86
e 22 87
e 22 89
e 22 90
e 22 91
e 22 100
e 23 24
e 23 25
e 23 26
e 23 27
e 23 28
e 23 29
e 23 30
e 23 31
e 23 32
e 23 34
e 23 35
e 23 36
e 23 37
e 23 38
e 23 40
e 23 44
e 23 46
e 23 48
e 23 50
e 23 51
e 23 52
e 23 54
e 23 58
e 23 61
e 23 66
e 23 70
e 23 71
e 23 74
e 23 90
e 23 91
e 23 92
e 23 99
e 24 25
e 24 26
e 24 27
e 24 29
e 24 30
e 24 31
e 24 33
e 24 35
e 24 36
e 24 39
e 24 40
e 24 43
e 24 45
e 24 47
e 24 49
e 24 50
e 24 54
e 24 55
e 24 56
e 24 57
e 24 58
e 24 59
e 24 61
e 24 62
e 24 66
e 24 67
e 24 68
e 24 69
e 24 71
e 24 72
e 24 73
e 24 74
e 24 81
e 24 82
e 24 83
e 24 87
e 24 89
e 24 90
e 24 93
e 24 96
e 24 99
e 24 100
e 25 27
e 25 28
e 25 29
e 25 31
e 25 32
e 25 37
e 25 38
e 25 41
e 25 42
e 25 45
e 25 46
e 25 47
e 25 48
e 25 50
e 25 56
e 25 58
e 25 59
e 25 66
e 25 67
e 25 68
e 25 69
e 25 72
e 25 73
e 25 74
e 25 75
e 26 27
e 26 28
e 26 29
e 26 30
e 26 31
e 26 33
e 26 40
e 26 41
e 26 42
e 26 43
e 26 44
e 26 45
e 26 49
e 26 56
e 26 58
e 26 67
e 26 70
e 26 72
e 26 74
e 26 76
e 26 82
e 26 83
e 26 85
e 26 90
e 26 91
e 26 98
e 26 100
e 27 28
e 27 29
e 27 30
e 27 32
e 27 33
e 27 38
e 27 39
e 27 40
e 27 42
e 27 43
e 27 47
e 27 49
e 27 52
e 27 54
e 27 57
e 27 59
e 27 60
e 27 61
e 27 62
e 27 63
e 27 68
e 27 69
e 27 73
e 27 75
e 27 79
e 27 81
e 27 84
e 27 88
e 27 89
e 27 90
e 27 93
e 27 96
e 27 99
e 28 30
e 28 32
e 28 33
e 28 34
e 28 35
e 28 38
e 28 39
e 28 43
e 28 45
e 28 49
e 28 54
e 28 55
e 28 56
e 28 57
e 28 60
e 28 63
e 28 65
e 28 68
e 28 71
e 28 72
e 28 76
e 28 77
e 28 78
e 28 80
e 29 31
e 29 32
e 29 34
e 29 35
e 29 36
e 29 38
e 29 39
e 29 40
e 29 42
e 29 43
e 29 46
e 29 48
e 29 49
e 29 50
e 29 52
e 29 55
e 29 57
e 29 60
e 29 67
e 29 72
e 29 77
e 29 80
e 29 81
e 29 86
e 29 88
e 29 90
e 29 91
e 29 94
e 29 98
e 29 100
e 30 32
e 30 33
e 30 35
e 30 36
e 30 37
e 30 38
e 30 39
e 30 40
e 30 41
e 30 44
e 30 47
e 30 48
e 30 51
e 30 52
e 30 53
e 30 55
e 30 59
e 30 62
e 30 65
e 30 70
e 30 71
e 30 82
e 30 83
e 30 86
e 30 88
e 30 93
e 30 97
e 30 99
e 31 33
e 31 35
e 31 36
e 31 37
e 31 38
e 31 42
e 31 43
e 31 47
e 31 49
e 31 57
e 31 61
e 31 69
e 31 71
e 31 77
e 31 80
e 31 85
e 31 90
e 31 93
e 31 94
e 31 95
e 31 98
e 32 34
e 32 35
e 32 37
e 32 39
e 32 40
e 32 45
e 32 54
e 32 58
e 32 59
e 32 61
e 32 63
e 32 68
e 32 72
e 32 87
e 32 91
e 32 93
e 32 96
e 33 36
e 33 44
e 33 47
e 33 48
e 33 49
e 33 50
e 33 51
e 33 53
e 33 58
e 33 63
e 33 65
e 33 75
e 33 76
e 33 93
e 33 96
e 33 100
e 34 35
e 34 36
e 34 39
e 34 40
e 34 41
e 34 43
e 34 49
e 34 51
e 34 57
e 34 62
e 34 68
e 34 73
e 34 75
e 34 77
e 34 83
e 34 97
e 35 38
e 35 39
e 35 40
e 35 42
e 35 43
e 35 44
e 35 46
e 35 52
e 35 53
e 35 63
e 35 64
e 35 67
e 35 69
e 35 73
e 35 78
e 35 81
e 35 91
e 35 95
e 35 96
e 35 100
e 36 40
e 36 42
e 36 44
e 36 46
e 36 47
e 36 48
e 36 54
e 36 59
e 36 60
e 36 62
e 36 66
e 36 70
e 36 72
e 36 83
e 36 96
e 37 45
e 37 46
e 37 53
e 37 55
e 37 59
e 37 60
e 37 64
e 37 71
e 37 76
e 37 77
e 37 81
e 37 92
e 37 93
e 38 40
e 38 42
e 38 43
e 38 44
e 38 46
e 38 53
e 38 55
e 38 60
e 38 61
e 38 62
e 38 63
e 38 69
e 38 77
e 38 79
e 38 83
e 38 85
e 38 90
e 38 91
e 38 92
e 38 96
e 39 41
e 39 44
e 39 45
e 39 51
e 39 56
e 39 63
e 39 66
e 39 75
e 39 77
e 39 80
e 39 86
e 40 41
e 40 42
e 40 48
e 40 50
e 40 52
e 40 56
e 40 59
e 40 61
e 40 62
e 40 66
e 40 67
e 40 70
e 40 71
e 40 74
e 40 75
e 40 76
e 40 83
e 40 85
e 40 86
e 40 94
e 40 96
e 41 42
e 41 45
e 41 59
e 41 60
e 41 62
e 41 65
e 41 66
e 41 69
e 41 73
e 41 83
e 41 85
e 41 86
e 41 88
e 41 89
e 42 44
e 42 53
e 42 54
e 42 61
e 42 63
e 42 64
e 42 65
e 42 74
e 42 88
e 42 98
e 42 99
e 43 50
e 43 54
e 43 55
e 43 56
e 43 63
e 43 65
e 43 69
e 43 74
e 43 75
e 43 87
e 43 100
e 44 47
e 44 53
e 44 56
e 44 60
e 44 61
e 44 68
e 44 70
e 44 71
e 44 86
e 44 87
e 45 46
e 45 52
e 45 53
e 45 55
e 45 57
e 45 58
e 45 60
e 45 63
e 45 75
e 45 77
e 45 79
e 45 82
e 45 83
e 45 87
e 45 89
e 45 95
e 46 49
e 46 57
e 46 60
e 46 61
e 46 65
e 46 67
e 46 75
e 46 76
e 46 82
e 46 91
e 46 96
e 47 50
e 47 63
e 47 79
e 48 52
e 48 54
e 48 58
e 48 65
e 48 68
e 48 70
e 48 71
e 48 75
e 48 79
e 48 80
e 48 81
e 48 84
e 48 90
e 48 100
e 49 55
e 49 65
e 49 67
e 49 68
e 49 73
e 49 74
e 49 79
e 49 81
e 49 89
e 49 92
e 49 93
e 49 100
e 50 51
e 50 54
e 50 60
e 50 62
e 50 65
e 50 69
e 50 71
e 50 81
e 50 83
e 50 89
e 50 94
e 50 95
e 50 97
e 51 54
e 51 61
e 51 64
e 51 69
e 51 72
e 51 80
e 51 91
e 51 96
e 51 98
e 52 56
e 52 61
e 52 72
e 52 73
e 52 78
e 52 83
e 52 89
e 52 92
e 52 94
e 52 95
e 52 100
e 53 59
e 53 64
e 53 66
e 53 70
e 53 76
e 53 79
e 53 80
e 53 82
e 53 84
e 53 85
e 53 88
e 53 93
e 53 98
e 54 82
e 55 56
e 55 59
e 55 63
e 55 64
e 55 73
e 55 76
e 55 80
e 55 100
e 56 77
e 56 79
e 56 84
e 56 88
e 56 94
e 56 98
e 57 77
e 57 81
e 57 82
e 57 83
e 57 84
e 57 90
e 57 95
e 58 59
e 58 64
e 58 67
e 58 68
e 58 70
e 58 72
e 58 75
e 58 93
e 59 62
e 59 64
e 59 73
e 59 78
e 59 80
e 59 84
e 59 85
e 59 89
e 60 67
e 60 74
e 60 76
e 60 77
e 60 79
e 60 95
e 60 98
e 60 99
e 61 79
e 61 84
e 61 90
e 61 91
e 61 94
e 61 95
e 61 96
e 62 65
e 62 66
e 62 72
e 62 74
e 62 78
e 62 81
e 62 84
e 62 86
e 62 87
e 63 65
e 63 67
e 63 70
e 63 72
e 63 76
e 63 84
e 63 86
e 63 91
e 64 73
e 64 76
e 64 90
e 64 97
e 65 67
e 65 70
e 65 74
e 65 79
e 65 80
e 65 81
e 65 86
e 65 95
e 65 97
e 65 99
e 66 68
e 66 78
e 66 80
e 66 93
e 67 69
e 67 71
e 67 76
e 67 78
e 67 79
e 67 81
e 67 86
e 67 93
e 67 97
e 67 100
e 68 77
e 68 86
e 68 87
e 68 98
e 69 74
e 70 71
e 70 81
e 70 92
e 70 94
e 71 76
e 71 85
e 71 88
e 72 78
e 72 81
e 72 85
e 72 88
e 72 94
e 72 98
e 73 83
e 73 88
e 73 89
e 73 97
e 73 100
e 74 75
e 74 80
e 74 88
e 74 96
e 75 77
e 75 79
e 75 87
e 75 91
e 75 95
e 76 88
e 76 89
e 76 97
e 77 78
e 77 87
e 77 94
e 78 80
e 78 92
e 78 99
e 79 83
e 79 94
e 79 99
e 80 90
e 80 91
e 80 92
e 80 95
e 80 99
e 81 94
e 81 95
e 82 85
e 82 97
e 83 91
e 83 95
e 83 98
e 83 99
e 85 89
e 86 100
e 88 99
e 89 94
e 89 97
e 90 92
e 91 98
e 91 100
